
--- Job EmployeeScheduling.gms Start 12/03/23 15:53:23 45.2.0 e4d2ee31 WEX-WEI x86 64bit/MS Windows
--- Applying:
    C:\GAMS\45\gmsprmNT.txt
--- GAMS Parameters defined
    Input "C:\Users\rajes\Desktop\CL643 Project\EmployeeScheduling.gms"
    PageSize 0
    ScrDir "C:\Users\rajes\Desktop\CL643 Project\225a\"
    SysDir C:\GAMS\45\
    LogOption 3
    ErrMsg 1
    ErrorLog 99
    IDE 1
    LstTitleLeftAligned 1
Licensee: GAMS Demo, for EULA and demo limitations see   G230930/0001CB-GEN
          https://www.gams.com/latest/docs/UG%5FLicense.html         DC0000
          C:\GAMS\45\gamslice.txt
          Demo license for demonstration and instructional purposes only
Processor information: 1 socket(s), 4 core(s), and 8 thread(s) available
GAMS 45.2.0   Copyright (C) 1987-2023 GAMS Development. All rights reserved
--- Starting compilation
--- EmployeeScheduling.gms(77) 3 Mb
--- Starting execution: elapsed 0:00:00.048
--- EmployeeScheduling.gms(76) 4 Mb
--- Generating MIP model EmployeeScheduling
--- EmployeeScheduling.gms(77) 4 Mb
---   769 rows  421 columns  3,041 non-zeroes
---   420 discrete-columns
--- Range statistics (absolute non-zero finite values)
--- RHS       [min, max] : [ 1.000E+00, 5.000E+00] - Zero values observed as well
--- Bound     [min, max] : [ 1.000E+00, 1.000E+00] - Zero values observed as well
--- Matrix    [min, max] : [ 1.000E+00, 3.620E+02]
--- Executing CPLEX (Solvelink=2): elapsed 0:00:00.098

IBM ILOG CPLEX   45.2.0 e4d2ee31 Oct 30, 2023          WEI x86 64bit/MS Window

*** This solver runs with a demo license. No commercial use.

*** Error Cannot open parameter file "C:\Users\rajes\Desktop\CL643 Project\cplex.opt"
*** Error Error code = 2; No such file or directory

--- GMO setup time: 0.00s
--- Space for names approximately 0.03 Mb
--- Use option 'names no' to turn use of names off
--- GMO memory 0.64 Mb (peak 0.64 Mb)
--- Dictionary memory 0.00 Mb
--- Cplex 22.1.1.0 link memory 0.02 Mb (peak 0.09 Mb)
--- Starting Cplex

Version identifier: 22.1.1.0 | 2022-11-27 | 9160aff4d
CPXPARAM_Advance                                 0
CPXPARAM_Threads                                 1
CPXPARAM_MIP_Display                             4
CPXPARAM_MIP_Pool_Capacity                       0
CPXPARAM_MIP_Tolerances_AbsMIPGap                0
Generic callback                                 0x50
Tried aggregator 1 time.
MIP Presolve eliminated 320 rows and 1 columns.
Reduced MIP has 448 rows, 420 columns, and 2300 nonzeros.
Reduced MIP has 420 binaries, 0 generals, 0 SOSs, and 0 indicators.
Presolve time = 0.02 sec. (1.40 ticks)
Found incumbent of value 34280.000000 after 0.03 sec. (4.06 ticks)
Probing time = 0.00 sec. (0.32 ticks)
Tried aggregator 1 time.
Detecting symmetries...
Reduced MIP has 448 rows, 420 columns, and 2300 nonzeros.
Reduced MIP has 420 binaries, 0 generals, 0 SOSs, and 0 indicators.
Presolve time = 0.02 sec. (2.40 ticks)
Probing time = 0.00 sec. (0.32 ticks)
Clique table members: 380.
MIP emphasis: balance optimality and feasibility.
MIP search method: dynamic search.
Parallel mode: none, using 1 thread.
Tried aggregator 1 time.
No LP presolve or aggregator reductions.
Presolve time = 0.00 sec. (0.25 ticks)
Initializing dual steep norms . . .

Iteration log . . .
Iteration:     1   Dual objective     =         22500.000000
Perturbation started.
Iteration:    51   Dual objective     =         22500.000000
Iteration:   113   Dual objective     =         22500.000017
Removing perturbation.
Root relaxation solution time = 0.02 sec. (2.08 ticks)

        Nodes                                         Cuts/
   Node  Left     Objective  IInf  Best Integer    Best Bound    ItCnt     Gap

*     0+    0                        34280.0000        0.0000           100.00%
Found incumbent of value 34280.000000 after 0.06 sec. (9.86 ticks)
      0     0    22500.0000    20    34280.0000    22500.0000      172   34.36%
*     0+    0                        22500.0000    22500.0000             0.00%
Found incumbent of value 22500.000000 after 0.06 sec. (10.57 ticks)
      0     0        cutoff          22500.0000    22500.0000      172    0.00%
Elapsed time = 0.06 sec. (10.57 ticks, tree = 0.01 MB)

Root node processing (before b&c):
  Real time             =    0.06 sec. (10.58 ticks)
Sequential b&c:
  Real time             =    0.00 sec. (0.00 ticks)
                          ------------
Total (root+branch&cut) =    0.06 sec. (10.58 ticks)

--- MIP status (101): integer optimal solution.
--- Cplex Time: 0.06sec (det. 10.58 ticks)

--- Returning a primal only solution to GAMS (marginals all set to NA).
--- Fixing integer variables and solving final LP...

Version identifier: 22.1.1.0 | 2022-11-27 | 9160aff4d
CPXPARAM_Advance                                 2
CPXPARAM_Threads                                 1
CPXPARAM_MIP_Display                             4
CPXPARAM_MIP_Pool_Capacity                       0
CPXPARAM_MIP_Tolerances_AbsMIPGap                0
Tried aggregator 1 time.
LP Presolve eliminated 768 rows and 421 columns.
All rows and columns eliminated.
Presolve time = 0.00 sec. (0.31 ticks)

--- Fixed MIP status (1): optimal.
--- Cplex Time: 0.02sec (det. 0.53 ticks)


Proven optimal solution
MIP Solution:        22500.000000    (172 iterations, 0 nodes)
Final Solve:         22500.000000    (0 iterations)

Best possible:       22500.000000
Absolute gap:            0.000000
Relative gap:            0.000000

--- Reading solution for model EmployeeScheduling
*** Status: Normal completion
--- Job EmployeeScheduling.gms Stop 12/03/23 15:53:24 elapsed 0:00:00.387
